c FILE: small_graph0.col
c DESCRIPTION: Malý graf s 30 vrcholmi pre testovanie
p edge 30 31
e 1 2
e 1 3
e 2 4
e 3 5
e 4 6
e 5 7
e 6 8
e 7 9
e 8 10
e 9 11
e 10 12
e 11 13
e 12 14
e 13 15
e 14 16
e 15 17
e 16 18
e 17 19
e 18 20
e 19 21
e 20 22
e 21 23
e 22 24
e 23 25
e 24 26
e 25 27
e 26 28
e 27 29
e 28 30
e 29 1
e 30 2
